23518
24958
165401
5621
11835
70
24861
45078
43763
470
0
12467
1233
88
2271
24824
3141
6184
531
12460
164
1309
6469
287
7617
6800
64
6226
13137
219
23510
6295
1445
27662
176
213
1525
1177
112301
23730
352
23334
3140
276
2752
75475
1436
3004
2845
1301
1273
2974
3070
71
13027
6050
25340
167616
189
11064
6473
24636
311
216590
1493
3681
1246
5834
31
1418
155
340
2866
3316
13169
164435
45638
2683
1065
44361
24189
220
3025
13938
2648
52
73344
1611
112
220
2394
108
84
1387
14449
166
2814
73653
11906
1560
